sat-intances/12.param.solution
language ESSENCE' 1.0
letting actionFrom be [0, 2, 2, 3, 2, 3, 2, 3, 2, 3, 2, 3, 3, 2, 3, 2, 3, 2, 3, 3, 3, 3, 0, 3, 3, 3, 2, 0, 2, 3, 3, 3, 2, 3, 2, 3, 2, 3, 2, 2]
letting actionTo be [2, 1, 3, 2, 1, 2, 1, 2, 1, 2, 1, 2, 2, 1, 2, 1, 2, 1, 2, 2, 2, 2, 2, 2, 2, 2, 1, 2, 1, 2, 2, 2, 1, 2, 1, 2, 1, 2, 1, 1]
letting actionTypes be [1, 2, 4, 8, 2, 8, 2, 8, 2, 6, 2, 7, 7, 2, 8, 2, 8, 2, 7, 7, 7, 5, 1, 8, 7, 6, 2, 1, 2, 8, 8, 8, 2, 6, 2, 5, 2, 8, 2, 2]
letting pointers be [[0, 1, 1, 1, 1, 1, 1, 1, 1, 1, 1, 1, 1, 1, 1, 1, 1, 1, 1, 1, 1, 1, 1, 2, 2, 2, 2, 2, 3, 3, 3, 3, 3, 3, 3, 3, 3, 3, 3, 3, 3;int(0..40)], 
[0, 0, 1, 1, 1, 2, 2, 3, 3, 4, 4, 5, 5, 5, 6, 6, 7, 7, 8, 8, 8, 8, 8, 8, 8, 8, 8, 9, 9, 10, 10, 10, 10, 11, 11, 12, 12, 13, 13, 14, 15;int(0..40)];int(0..1)]
letting statePlaces be [[-1, 4, 4, 4, 3, 3, 2, 2, 1, 1, 0, 0, 2, 3, 3, 2, 2, 1, 1, 2, 3, 4, 8, 3, 3, 4, 0, 0, 2, 2, 3, 2, 1, 1, 0, 0, 1, 1, 0, 0, 0;int(0..40)], 
[-1, -1, -1, 4, 3, 3, 2, 2, 1, 1, 1, 1, 2, 3, 3, 2, 2, 1, 1, 2, 3, 4, 4, 4, 3, 4, 4, 4, 4, 4, 3, 2, 1, 1, 1, 1, 1, 1, 0, 0, 0;int(0..40)];int(2..3)]
